/* Objective function */
min: - 0.0054fpdi - 0.0054fpdo + 0.05apdi + 0.05apdo + 0.0002pi + 0.0002po - 0.5fsi - 0.5fso;

apdi = 0.0 hi + -0.0 li + 4.00397 ri + 6.4127 ci + -0.43716 si + 0.0 ti + 0.00612 fTempIi + 0.04745 ami + -42.56584;
asi = 0.0 hi + -0.0 li + -0.00038 ri + 0.14067 ci + -6e-05 si + 0.0 ti + -0.00032 fTempIi + 0.00105 ami + -0.20244;
aTempOi = 0.0 hi + 0.0 li + 0.38583 ri + -0.9469 ci + -0.0434 si + 0.0 ti + 0.73627 fTempIi + -0.0065 ami + 7.70609;
fpdi = 0.0 hi + 0.0 li + 6.28393 ri + -65.64563 ci + -0.00981 si + 0.0 ti + -0.25779 fTempIi + 0.00115 ami + 102.53282;
fsi = 0.0 hi + 0.0 li + -0.0 ri + -0.35 ci + 0.0 si + 0.0 ti + 0.0 fTempIi + 0.0 ami + 1.06;
fTempOi = 0.0 hi + -0.0 li + -0.40278 ri + 1.02381 ci + 0.04627 si + 0.0 ti + 0.23592 fTempIi + -0.00512 ami + 8.84458;
pi = 0.0 hi + -0.0 li + 42.83333 ri + -8.66667 ci + -1.62857 si + -0.0 ti + 0.0 fTempIi + -0.0 ami + 146.2381;

apdo = 0.0 ho + -0.0 lo + 4.54431 ro + 0.00132 co + -0.85189 so + 0.0 to + 0.04535 fTempIo + 0.09246 amo + -64.59814;
aso = 0.0 ho + -0.0 lo + -0.0 ro + 0.0 co + -0.0 so + -0.0 to + 0.0 fTempIo + 0.00112 amo + -0.00571;
aTempOo = 0.0 ho + 0.0 lo + -0.20955 ro + 0.11016 co + 0.03053 so + -0.0 to + 0.76463 fTempIo + 0.00738 amo + -0.39715;
fpdo = 0.0 ho + -0.0 lo + 0.29484 ro + -2.30675 co + 0.0005 so + 0.0 to + -0.02484 fTempIo + -0.00012 amo + 9.62998;
fso = 0.0 ho + -0.0 lo + 0.0 ro + -0.05 co + -0.0 so + 0.0 to + -0.0 fTempIo + 0.0 amo + 0.38667;
fTempOo = 0.0 ho + -0.0 lo + 0.21766 ro + -0.12619 co + -0.0325 so + 0.0 to + 0.19782 fTempIo + 0.0057 amo + 13.27636;
po = 0.0 ho + -0.0 lo + 42.33333 ro + 3.5 co + -2.60159 so + 0.0 to + 0.0 fTempIo + -0.0 amo + 153.19841;

/* Variable bounds */
aTempOi > 18.6;
1 =r6i + r8i + r10i + r12i + r14i;
ri =6r6i + 8r8i + 10r10i + 12r12i + 14r14i;
1 =s25i + s30i + s40i;
si =25s25i + 30s30i + 40s40i;
ti = 1;
apdi > 100;
apdi < 300;
asi > 0;
asi < 3;
aTempOi > 5;
aTempOi < 25;
fpdi > 100;
fpdi < 300;
fsi > 0;
fsi < 1.25;
fTempOi > 5;
fTempOi < 25;
pi > 0;
ri > 6;
ri < 10;
ci > 1;
ci < 3;
si > 25;
si < 60;
ti > 1;
ti < 3;
fTempIi > 5;
fTempIi < 25;

/* aTempOo < 11.4; */
1 =r6o + r8o + r10o + r12o + r14o;
ro =6r6o + 8r8o + 10r10o + 12r12o + 14r14o;
1 =s25o + s30o + s40o;
so =25s25o + 30s30o + 40s40o;
to = 1;
apdo > 100;
apdo < 300;
aso > 0;
aso < 3;
aTempOo > 5;
aTempOo < 25;
fpdo > 100;
fpdo < 300;
fso > 0;
fso < 1.25;
fTempOo > 5;
fTempOo < 25;
po > 0;
ro > 10;
ro < 14;
co > 3;
co < 60;
so > 25;
so < 60;
to > 1;
to < 3;
fTempIo > 5;
fTempIo < 25;
int hi,li,si,ti,ci,ri,ami;
int ho,lo,so,to,co,ro,amo;
bin s25i,s30i,s40i,s50i,s60i,r6i,r8i,r10i,r12i,r14i;
bin s25o,s30o,s40o,s50o,s60o,r6o,r8o,r10o,r12o,r14o;
